c User generated cnf file
p cnf 13 72
4 4 -1 0 
4 13 -7 0 
11 -5 5 0 
7 -6 3 0 
7 -12 2 0 
9 -5 11 0 
4 7 -13 0 
12 9 -9 0 
1 -13 1 0 
1 1 -7 0 
7 -10 7 0 
8 5 -2 0 
11 7 -2 0 
10 6 -11 0 
10 13 -2 0 
7 -11 11 0 
8 -8 1 0 
4 -12 5 0 
2 1 -4 0 
12 9 -13 0 
5 4 -10 0 
13 4 -11 0 
8 7 -4 0 
8 5 -12 0 
9 5 -7 0 
7 9 -7 0 
6 8 -1 0 
7 -1 2 0 
2 -11 3 0 
1 5 -6 0 
13 -2 2 0 
9 -8 12 0 
13 6 -9 0 
2 -5 8 0 
1 -2 10 0 
7 11 -13 0 
10 12 -12 0 
5 8 -8 0 
11 -1 13 0 
11 6 -13 0 
11 8 -13 0 
8 6 -12 0 
7 12 -12 0 
13 12 -5 0 
13 -7 7 0 
10 1 -1 0 
5 11 -4 0 
10 -8 7 0 
3 -2 7 0 
8 -2 6 0 
5 -2 3 0 
13 3 -4 0 
3 -11 9 0 
6 4 -11 0 
11 11 -2 0 
3 7 -6 0 
4 -3 4 0 
4 3 -4 0 
2 9 -11 0 
6 -10 12 0 
4 -2 5 0 
10 1 -11 0 
3 9 -13 0 
5 -9 5 0 
9 10 -9 0 
5 7 -12 0 
7 12 -12 0 
3 -8 5 0 
6 -6 9 0 
6 5 -9 0 
10 -13 5 0 
8 11 -2 0 
